p cnf 356 1508
e 1 0
a 2 3 4 5 6 7 8 9 0
e 10 11 12 13 14 15 16 17 18 19 20 21 22 23 24 25 26 27 28 29 30 31 32 33 34 35 36 37 38 39 40 41 42 43 44 45 46 47 48 49 50 51 52 53 54 55 56 57 58 59 60 61 62 63 64 65 66 67 68 69 70 71 72 73 74 75 76 77 78 79 80 81 82 0
a 83 84 85 86 87 88 89 90 0
e 91 92 93 94 95 96 97 98 99 100 101 102 103 104 105 106 107 108 109 110 111 112 113 114 115 116 117 118 119 120 121 122 123 124 125 126 127 128 129 130 131 132 133 134 135 136 137 138 139 140 141 142 143 144 145 146 147 148 149 150 151 152 153 154 155 156 157 158 159 160 161 162 163 0
a 164 165 166 167 168 169 170 171 0
e 172 173 174 175 176 177 178 179 180 181 182 183 184 185 186 187 188 189 190 191 192 193 194 195 196 197 198 199 200 201 202 203 204 205 206 207 208 209 210 211 212 213 214 215 216 217 218 219 220 221 222 223 224 225 226 227 228 229 230 231 232 233 234 235 236 237 238 239 240 241 242 243 244 0
a 245 246 247 248 249 250 251 252 0
e 253 254 255 256 257 258 259 260 261 262 263 264 265 266 267 268 269 270 271 272 273 274 275 276 277 278 279 280 281 282 283 284 285 286 287 288 289 290 291 292 293 294 295 296 297 298 299 300 301 302 303 304 305 306 307 308 309 310 311 312 313 314 315 316 317 318 319 320 321 322 323 324 325 326 327 328 329 330 331 332 333 334 335 336 337 338 339 340 341 342 343 344 345 346 347 348 349 350 351 352 353 354 355 356 0
-1 2 3 4 5 51 0
-2 -1 3 4 5 53 0
-3 -1 2 4 5 55 0
-3 -2 -1 4 5 57 0
-4 -1 2 3 5 59 0
-4 -2 -1 3 5 61 0
-4 -3 -1 2 5 63 0
-4 -3 -2 -1 5 65 0
-5 -1 2 3 4 67 0
-5 -2 -1 3 4 69 0
-5 -3 -1 2 4 71 0
-5 -3 -2 -1 4 73 0
-5 -4 -1 2 3 75 0
-5 -4 -2 -1 3 77 0
-5 -4 -3 -1 2 79 0
-5 -4 -3 -2 -1 81 0
-1 6 7 8 9 51 0
-6 -1 7 8 9 53 0
-7 -1 6 8 9 55 0
-7 -6 -1 8 9 57 0
-8 -1 6 7 9 59 0
-8 -6 -1 7 9 61 0
-8 -7 -1 6 9 63 0
-8 -7 -6 -1 9 65 0
-9 -1 6 7 8 67 0
-9 -6 -1 7 8 69 0
-9 -7 -1 6 8 71 0
-9 -7 -6 -1 8 73 0
-9 -8 -1 6 7 75 0
-9 -8 -6 -1 7 77 0
-9 -8 -7 -1 6 79 0
-9 -8 -7 -6 -1 81 0
-82 50 83 84 85 86 132 0
-83 -82 52 84 85 86 134 0
-84 -82 54 83 85 86 136 0
-84 -83 -82 56 85 86 138 0
-85 -82 58 83 84 86 140 0
-85 -83 -82 60 84 86 142 0
-85 -84 -82 62 83 86 144 0
-85 -84 -83 -82 64 86 146 0
-86 -82 66 83 84 85 148 0
-86 -83 -82 68 84 85 150 0
-86 -84 -82 70 83 85 152 0
-86 -84 -83 -82 72 85 154 0
-86 -85 -82 74 83 84 156 0
-86 -85 -83 -82 76 84 158 0
-86 -85 -84 -82 78 83 160 0
-86 -85 -84 -83 -82 80 162 0
-82 50 87 88 89 90 132 0
-87 -82 52 88 89 90 134 0
-88 -82 54 87 89 90 136 0
-88 -87 -82 56 89 90 138 0
-89 -82 58 87 88 90 140 0
-89 -87 -82 60 88 90 142 0
-89 -88 -82 62 87 90 144 0
-89 -88 -87 -82 64 90 146 0
-90 -82 66 87 88 89 148 0
-90 -87 -82 68 88 89 150 0
-90 -88 -82 70 87 89 152 0
-90 -88 -87 -82 72 89 154 0
-90 -89 -82 74 87 88 156 0
-90 -89 -87 -82 76 88 158 0
-90 -89 -88 -82 78 87 160 0
-90 -89 -88 -87 -82 80 162 0
-163 131 164 165 166 167 213 0
-164 -163 133 165 166 167 215 0
-165 -163 135 164 166 167 217 0
-165 -164 -163 137 166 167 219 0
-166 -163 139 164 165 167 221 0
-166 -164 -163 141 165 167 223 0
-166 -165 -163 143 164 167 225 0
-166 -165 -164 -163 145 167 227 0
-167 -163 147 164 165 166 229 0
-167 -164 -163 149 165 166 231 0
-167 -165 -163 151 164 166 233 0
-167 -165 -164 -163 153 166 235 0
-167 -166 -163 155 164 165 237 0
-167 -166 -164 -163 157 165 239 0
-167 -166 -165 -163 159 164 241 0
-167 -166 -165 -164 -163 161 243 0
-163 131 168 169 170 171 213 0
-168 -163 133 169 170 171 215 0
-169 -163 135 168 170 171 217 0
-169 -168 -163 137 170 171 219 0
-170 -163 139 168 169 171 221 0
-170 -168 -163 141 169 171 223 0
-170 -169 -163 143 168 171 225 0
-170 -169 -168 -163 145 171 227 0
-171 -163 147 168 169 170 229 0
-171 -168 -163 149 169 170 231 0
-171 -169 -163 151 168 170 233 0
-171 -169 -168 -163 153 170 235 0
-171 -170 -163 155 168 169 237 0
-171 -170 -168 -163 157 169 239 0
-171 -170 -169 -163 159 168 241 0
-171 -170 -169 -168 -163 161 243 0
-244 212 245 246 247 248 294 0
-245 -244 214 246 247 248 296 0
-246 -244 216 245 247 248 298 0
-246 -245 -244 218 247 248 300 0
-247 -244 220 245 246 248 302 0
-247 -245 -244 222 246 248 304 0
-247 -246 -244 224 245 248 306 0
-247 -246 -245 -244 226 248 308 0
-248 -244 228 245 246 247 310 0
-248 -245 -244 230 246 247 312 0
-248 -246 -244 232 245 247 314 0
-248 -246 -245 -244 234 247 316 0
-248 -247 -244 236 245 246 318 0
-248 -247 -245 -244 238 246 320 0
-248 -247 -246 -244 240 245 322 0
-248 -247 -246 -245 -244 242 324 0
-244 212 249 250 251 252 294 0
-249 -244 214 250 251 252 296 0
-250 -244 216 249 251 252 298 0
-250 -249 -244 218 251 252 300 0
-251 -244 220 249 250 252 302 0
-251 -249 -244 222 250 252 304 0
-251 -250 -244 224 249 252 306 0
-251 -250 -249 -244 226 252 308 0
-252 -244 228 249 250 251 310 0
-252 -249 -244 230 250 251 312 0
-252 -250 -244 232 249 251 314 0
-252 -250 -249 -244 234 251 316 0
-252 -251 -244 236 249 250 318 0
-252 -251 -249 -244 238 250 320 0
-252 -251 -250 -244 240 249 322 0
-252 -251 -250 -249 -244 242 324 0
-18 -10 0
-18 -11 0
-18 -12 0
-18 -13 0
-19 10 0
-19 -11 0
-19 -12 0
-19 -13 0
-20 -10 0
-20 11 0
-20 -12 0
-20 -13 0
-21 10 0
-21 11 0
-21 -12 0
-21 -13 0
-22 -10 0
-22 -11 0
-22 12 0
-22 -13 0
-23 10 0
-23 -11 0
-23 12 0
-23 -13 0
-24 -10 0
-24 11 0
-24 12 0
-24 -13 0
-25 10 0
-25 11 0
-25 12 0
-25 -13 0
-26 -10 0
-26 -11 0
-26 -12 0
-26 13 0
-27 10 0
-27 -11 0
-27 -12 0
-27 13 0
-28 -10 0
-28 11 0
-28 -12 0
-28 13 0
-29 10 0
-29 11 0
-29 -12 0
-29 13 0
-30 -10 0
-30 -11 0
-30 12 0
-30 13 0
-31 10 0
-31 -11 0
-31 12 0
-31 13 0
-32 -10 0
-32 11 0
-32 12 0
-32 13 0
-33 10 0
-33 11 0
-33 12 0
-33 13 0
-34 -14 0
-34 -15 0
-34 -16 0
-34 -17 0
-35 14 0
-35 -15 0
-35 -16 0
-35 -17 0
-36 -14 0
-36 15 0
-36 -16 0
-36 -17 0
-37 14 0
-37 15 0
-37 -16 0
-37 -17 0
-38 -14 0
-38 -15 0
-38 16 0
-38 -17 0
-39 14 0
-39 -15 0
-39 16 0
-39 -17 0
-40 -14 0
-40 15 0
-40 16 0
-40 -17 0
-41 14 0
-41 15 0
-41 16 0
-41 -17 0
-42 -14 0
-42 -15 0
-42 -16 0
-42 17 0
-43 14 0
-43 -15 0
-43 -16 0
-43 17 0
-44 -14 0
-44 15 0
-44 -16 0
-44 17 0
-45 14 0
-45 15 0
-45 -16 0
-45 17 0
-46 -14 0
-46 -15 0
-46 16 0
-46 17 0
-47 14 0
-47 -15 0
-47 16 0
-47 17 0
-48 -14 0
-48 15 0
-48 16 0
-48 17 0
-49 14 0
-49 15 0
-49 16 0
-49 17 0
-99 -91 0
-99 -92 0
-99 -93 0
-99 -94 0
-100 91 0
-100 -92 0
-100 -93 0
-100 -94 0
-101 -91 0
-101 92 0
-101 -93 0
-101 -94 0
-102 91 0
-102 92 0
-102 -93 0
-102 -94 0
-103 -91 0
-103 -92 0
-103 93 0
-103 -94 0
-104 91 0
-104 -92 0
-104 93 0
-104 -94 0
-105 -91 0
-105 92 0
-105 93 0
-105 -94 0
-106 91 0
-106 92 0
-106 93 0
-106 -94 0
-107 -91 0
-107 -92 0
-107 -93 0
-107 94 0
-108 91 0
-108 -92 0
-108 -93 0
-108 94 0
-109 -91 0
-109 92 0
-109 -93 0
-109 94 0
-110 91 0
-110 92 0
-110 -93 0
-110 94 0
-111 -91 0
-111 -92 0
-111 93 0
-111 94 0
-112 91 0
-112 -92 0
-112 93 0
-112 94 0
-113 -91 0
-113 92 0
-113 93 0
-113 94 0
-114 91 0
-114 92 0
-114 93 0
-114 94 0
-115 -95 0
-115 -96 0
-115 -97 0
-115 -98 0
-116 95 0
-116 -96 0
-116 -97 0
-116 -98 0
-117 -95 0
-117 96 0
-117 -97 0
-117 -98 0
-118 95 0
-118 96 0
-118 -97 0
-118 -98 0
-119 -95 0
-119 -96 0
-119 97 0
-119 -98 0
-120 95 0
-120 -96 0
-120 97 0
-120 -98 0
-121 -95 0
-121 96 0
-121 97 0
-121 -98 0
-122 95 0
-122 96 0
-122 97 0
-122 -98 0
-123 -95 0
-123 -96 0
-123 -97 0
-123 98 0
-124 95 0
-124 -96 0
-124 -97 0
-124 98 0
-125 -95 0
-125 96 0
-125 -97 0
-125 98 0
-126 95 0
-126 96 0
-126 -97 0
-126 98 0
-127 -95 0
-127 -96 0
-127 97 0
-127 98 0
-128 95 0
-128 -96 0
-128 97 0
-128 98 0
-129 -95 0
-129 96 0
-129 97 0
-129 98 0
-130 95 0
-130 96 0
-130 97 0
-130 98 0
-180 -172 0
-180 -173 0
-180 -174 0
-180 -175 0
-181 172 0
-181 -173 0
-181 -174 0
-181 -175 0
-182 -172 0
-182 173 0
-182 -174 0
-182 -175 0
-183 172 0
-183 173 0
-183 -174 0
-183 -175 0
-184 -172 0
-184 -173 0
-184 174 0
-184 -175 0
-185 172 0
-185 -173 0
-185 174 0
-185 -175 0
-186 -172 0
-186 173 0
-186 174 0
-186 -175 0
-187 172 0
-187 173 0
-187 174 0
-187 -175 0
-188 -172 0
-188 -173 0
-188 -174 0
-188 175 0
-189 172 0
-189 -173 0
-189 -174 0
-189 175 0
-190 -172 0
-190 173 0
-190 -174 0
-190 175 0
-191 172 0
-191 173 0
-191 -174 0
-191 175 0
-192 -172 0
-192 -173 0
-192 174 0
-192 175 0
-193 172 0
-193 -173 0
-193 174 0
-193 175 0
-194 -172 0
-194 173 0
-194 174 0
-194 175 0
-195 172 0
-195 173 0
-195 174 0
-195 175 0
-196 -176 0
-196 -177 0
-196 -178 0
-196 -179 0
-197 176 0
-197 -177 0
-197 -178 0
-197 -179 0
-198 -176 0
-198 177 0
-198 -178 0
-198 -179 0
-199 176 0
-199 177 0
-199 -178 0
-199 -179 0
-200 -176 0
-200 -177 0
-200 178 0
-200 -179 0
-201 176 0
-201 -177 0
-201 178 0
-201 -179 0
-202 -176 0
-202 177 0
-202 178 0
-202 -179 0
-203 176 0
-203 177 0
-203 178 0
-203 -179 0
-204 -176 0
-204 -177 0
-204 -178 0
-204 179 0
-205 176 0
-205 -177 0
-205 -178 0
-205 179 0
-206 -176 0
-206 177 0
-206 -178 0
-206 179 0
-207 176 0
-207 177 0
-207 -178 0
-207 179 0
-208 -176 0
-208 -177 0
-208 178 0
-208 179 0
-209 176 0
-209 -177 0
-209 178 0
-209 179 0
-210 -176 0
-210 177 0
-210 178 0
-210 179 0
-211 176 0
-211 177 0
-211 178 0
-211 179 0
-261 -253 0
-261 -254 0
-261 -255 0
-261 -256 0
-262 253 0
-262 -254 0
-262 -255 0
-262 -256 0
-263 -253 0
-263 254 0
-263 -255 0
-263 -256 0
-264 253 0
-264 254 0
-264 -255 0
-264 -256 0
-265 -253 0
-265 -254 0
-265 255 0
-265 -256 0
-266 253 0
-266 -254 0
-266 255 0
-266 -256 0
-267 -253 0
-267 254 0
-267 255 0
-267 -256 0
-268 253 0
-268 254 0
-268 255 0
-268 -256 0
-269 -253 0
-269 -254 0
-269 -255 0
-269 256 0
-270 253 0
-270 -254 0
-270 -255 0
-270 256 0
-271 -253 0
-271 254 0
-271 -255 0
-271 256 0
-272 253 0
-272 254 0
-272 -255 0
-272 256 0
-273 -253 0
-273 -254 0
-273 255 0
-273 256 0
-274 253 0
-274 -254 0
-274 255 0
-274 256 0
-275 -253 0
-275 254 0
-275 255 0
-275 256 0
-276 253 0
-276 254 0
-276 255 0
-276 256 0
-277 -257 0
-277 -258 0
-277 -259 0
-277 -260 0
-278 257 0
-278 -258 0
-278 -259 0
-278 -260 0
-279 -257 0
-279 258 0
-279 -259 0
-279 -260 0
-280 257 0
-280 258 0
-280 -259 0
-280 -260 0
-281 -257 0
-281 -258 0
-281 259 0
-281 -260 0
-282 257 0
-282 -258 0
-282 259 0
-282 -260 0
-283 -257 0
-283 258 0
-283 259 0
-283 -260 0
-284 257 0
-284 258 0
-284 259 0
-284 -260 0
-285 -257 0
-285 -258 0
-285 -259 0
-285 260 0
-286 257 0
-286 -258 0
-286 -259 0
-286 260 0
-287 -257 0
-287 258 0
-287 -259 0
-287 260 0
-288 257 0
-288 258 0
-288 -259 0
-288 260 0
-289 -257 0
-289 -258 0
-289 259 0
-289 260 0
-290 257 0
-290 -258 0
-290 259 0
-290 260 0
-291 -257 0
-291 258 0
-291 259 0
-291 260 0
-292 257 0
-292 258 0
-292 259 0
-292 260 0
-99 -50 0
-100 -52 0
-101 -54 0
-102 -56 0
-103 -58 0
-104 -60 0
-105 -62 0
-106 -64 0
-107 -66 0
-108 -68 0
-109 -70 0
-110 -72 0
-111 -74 0
-112 -76 0
-113 -78 0
-114 -80 0
-115 -50 0
-116 -52 0
-117 -54 0
-118 -56 0
-119 -58 0
-120 -60 0
-121 -62 0
-122 -64 0
-123 -66 0
-124 -68 0
-125 -70 0
-126 -72 0
-127 -74 0
-128 -76 0
-129 -78 0
-130 -80 0
-180 -131 0
-181 -133 0
-182 -135 0
-183 -137 0
-184 -139 0
-185 -141 0
-186 -143 0
-187 -145 0
-188 -147 0
-189 -149 0
-190 -151 0
-191 -153 0
-192 -155 0
-193 -157 0
-194 -159 0
-195 -161 0
-196 -131 0
-197 -133 0
-198 -135 0
-199 -137 0
-200 -139 0
-201 -141 0
-202 -143 0
-203 -145 0
-204 -147 0
-205 -149 0
-206 -151 0
-207 -153 0
-208 -155 0
-209 -157 0
-210 -159 0
-211 -161 0
-261 -212 0
-262 -214 0
-263 -216 0
-264 -218 0
-265 -220 0
-266 -222 0
-267 -224 0
-268 -226 0
-269 -228 0
-270 -230 0
-271 -232 0
-272 -234 0
-273 -236 0
-274 -238 0
-275 -240 0
-276 -242 0
-277 -212 0
-278 -214 0
-279 -216 0
-280 -218 0
-281 -220 0
-282 -222 0
-283 -224 0
-284 -226 0
-285 -228 0
-286 -230 0
-287 -232 0
-288 -234 0
-289 -236 0
-290 -238 0
-291 -240 0
-292 -242 0
-18 50 0
-19 52 0
-20 54 0
-21 56 0
-22 58 0
-23 60 0
-24 62 0
-25 64 0
-26 66 0
-27 68 0
-28 70 0
-29 72 0
-30 74 0
-31 76 0
-32 78 0
-33 80 0
-34 50 0
-35 52 0
-36 54 0
-37 56 0
-38 58 0
-39 60 0
-40 62 0
-41 64 0
-42 66 0
-43 68 0
-44 70 0
-45 72 0
-46 74 0
-47 76 0
-48 78 0
-49 80 0
-99 131 0
-100 133 0
-101 135 0
-102 137 0
-103 139 0
-104 141 0
-105 143 0
-106 145 0
-107 147 0
-108 149 0
-109 151 0
-110 153 0
-111 155 0
-112 157 0
-113 159 0
-114 161 0
-115 131 0
-116 133 0
-117 135 0
-118 137 0
-119 139 0
-120 141 0
-121 143 0
-122 145 0
-123 147 0
-124 149 0
-125 151 0
-126 153 0
-127 155 0
-128 157 0
-129 159 0
-130 161 0
-180 212 0
-181 214 0
-182 216 0
-183 218 0
-184 220 0
-185 222 0
-186 224 0
-187 226 0
-188 228 0
-189 230 0
-190 232 0
-191 234 0
-192 236 0
-193 238 0
-194 240 0
-195 242 0
-196 212 0
-197 214 0
-198 216 0
-199 218 0
-200 220 0
-201 222 0
-202 224 0
-203 226 0
-204 228 0
-205 230 0
-206 232 0
-207 234 0
-208 236 0
-209 238 0
-210 240 0
-211 242 0
-261 293 0
-262 295 0
-263 297 0
-264 299 0
-265 301 0
-266 303 0
-267 305 0
-268 307 0
-269 309 0
-270 311 0
-271 313 0
-272 315 0
-273 317 0
-274 319 0
-275 321 0
-276 323 0
-277 293 0
-278 295 0
-279 297 0
-280 299 0
-281 301 0
-282 303 0
-283 305 0
-284 307 0
-285 309 0
-286 311 0
-287 313 0
-288 315 0
-289 317 0
-290 319 0
-291 321 0
-292 323 0
-18 1 0
-19 1 0
-20 1 0
-21 1 0
-22 1 0
-23 1 0
-24 1 0
-25 1 0
-26 1 0
-27 1 0
-28 1 0
-29 1 0
-30 1 0
-31 1 0
-32 1 0
-33 1 0
-34 1 0
-35 1 0
-36 1 0
-37 1 0
-38 1 0
-39 1 0
-40 1 0
-41 1 0
-42 1 0
-43 1 0
-44 1 0
-45 1 0
-46 1 0
-47 1 0
-48 1 0
-49 1 0
-99 82 0
-100 82 0
-101 82 0
-102 82 0
-103 82 0
-104 82 0
-105 82 0
-106 82 0
-107 82 0
-108 82 0
-109 82 0
-110 82 0
-111 82 0
-112 82 0
-113 82 0
-114 82 0
-115 82 0
-116 82 0
-117 82 0
-118 82 0
-119 82 0
-120 82 0
-121 82 0
-122 82 0
-123 82 0
-124 82 0
-125 82 0
-126 82 0
-127 82 0
-128 82 0
-129 82 0
-130 82 0
-180 163 0
-181 163 0
-182 163 0
-183 163 0
-184 163 0
-185 163 0
-186 163 0
-187 163 0
-188 163 0
-189 163 0
-190 163 0
-191 163 0
-192 163 0
-193 163 0
-194 163 0
-195 163 0
-196 163 0
-197 163 0
-198 163 0
-199 163 0
-200 163 0
-201 163 0
-202 163 0
-203 163 0
-204 163 0
-205 163 0
-206 163 0
-207 163 0
-208 163 0
-209 163 0
-210 163 0
-211 163 0
-261 244 0
-262 244 0
-263 244 0
-264 244 0
-265 244 0
-266 244 0
-267 244 0
-268 244 0
-269 244 0
-270 244 0
-271 244 0
-272 244 0
-273 244 0
-274 244 0
-275 244 0
-276 244 0
-277 244 0
-278 244 0
-279 244 0
-280 244 0
-281 244 0
-282 244 0
-283 244 0
-284 244 0
-285 244 0
-286 244 0
-287 244 0
-288 244 0
-289 244 0
-290 244 0
-291 244 0
-292 244 0
-50 18 34 0
-52 19 35 0
-54 20 36 0
-56 21 37 0
-58 22 38 0
-60 23 39 0
-62 24 40 0
-64 25 41 0
-66 26 42 0
-68 27 43 0
-70 28 44 0
-72 29 45 0
-74 30 46 0
-76 31 47 0
-78 32 48 0
-80 33 49 0
-131 50 99 115 0
-133 52 100 116 0
-135 54 101 117 0
-137 56 102 118 0
-139 58 103 119 0
-141 60 104 120 0
-143 62 105 121 0
-145 64 106 122 0
-147 66 107 123 0
-149 68 108 124 0
-151 70 109 125 0
-153 72 110 126 0
-155 74 111 127 0
-157 76 112 128 0
-159 78 113 129 0
-161 80 114 130 0
-212 131 180 196 0
-214 133 181 197 0
-216 135 182 198 0
-218 137 183 199 0
-220 139 184 200 0
-222 141 185 201 0
-224 143 186 202 0
-226 145 187 203 0
-228 147 188 204 0
-230 149 189 205 0
-232 151 190 206 0
-234 153 191 207 0
-236 155 192 208 0
-238 157 193 209 0
-240 159 194 210 0
-242 161 195 211 0
-293 212 261 277 0
-295 214 262 278 0
-297 216 263 279 0
-299 218 264 280 0
-301 220 265 281 0
-303 222 266 282 0
-305 224 267 283 0
-307 226 268 284 0
-309 228 269 285 0
-311 230 270 286 0
-313 232 271 287 0
-315 234 272 288 0
-317 236 273 289 0
-319 238 274 290 0
-321 240 275 291 0
-323 242 276 292 0
-51 -50 0
-132 -131 0
-213 -212 0
-294 -293 0
-53 -52 0
-134 -133 0
-215 -214 0
-296 -295 0
-55 -54 0
-136 -135 0
-217 -216 0
-298 -297 0
-57 -56 0
-138 -137 0
-219 -218 0
-300 -299 0
-59 -58 0
-140 -139 0
-221 -220 0
-302 -301 0
-61 -60 0
-142 -141 0
-223 -222 0
-304 -303 0
-63 -62 0
-144 -143 0
-225 -224 0
-306 -305 0
-65 -64 0
-146 -145 0
-227 -226 0
-308 -307 0
-67 -66 0
-148 -147 0
-229 -228 0
-310 -309 0
-69 -68 0
-150 -149 0
-231 -230 0
-312 -311 0
-71 -70 0
-152 -151 0
-233 -232 0
-314 -313 0
-73 -72 0
-154 -153 0
-235 -234 0
-316 -315 0
-75 -74 0
-156 -155 0
-237 -236 0
-318 -317 0
-77 -76 0
-158 -157 0
-239 -238 0
-320 -319 0
-79 -78 0
-160 -159 0
-241 -240 0
-322 -321 0
-81 -80 0
-162 -161 0
-243 -242 0
-324 -323 0
-82 1 0
-163 82 0
-244 163 0
-50 131 0
-51 132 0
-52 133 0
-53 134 0
-54 135 0
-55 136 0
-56 137 0
-57 138 0
-58 139 0
-59 140 0
-60 141 0
-61 142 0
-62 143 0
-63 144 0
-64 145 0
-65 146 0
-66 147 0
-67 148 0
-68 149 0
-69 150 0
-70 151 0
-71 152 0
-72 153 0
-73 154 0
-74 155 0
-75 156 0
-76 157 0
-77 158 0
-78 159 0
-79 160 0
-80 161 0
-81 162 0
-131 212 0
-132 213 0
-133 214 0
-134 215 0
-135 216 0
-136 217 0
-137 218 0
-138 219 0
-139 220 0
-140 221 0
-141 222 0
-142 223 0
-143 224 0
-144 225 0
-145 226 0
-146 227 0
-147 228 0
-148 229 0
-149 230 0
-150 231 0
-151 232 0
-152 233 0
-153 234 0
-154 235 0
-155 236 0
-156 237 0
-157 238 0
-158 239 0
-159 240 0
-160 241 0
-161 242 0
-162 243 0
-212 293 0
-213 294 0
-214 295 0
-215 296 0
-216 297 0
-217 298 0
-218 299 0
-219 300 0
-220 301 0
-221 302 0
-222 303 0
-223 304 0
-224 305 0
-225 306 0
-226 307 0
-227 308 0
-228 309 0
-229 310 0
-230 311 0
-231 312 0
-232 313 0
-233 314 0
-234 315 0
-235 316 0
-236 317 0
-237 318 0
-238 319 0
-239 320 0
-240 321 0
-241 322 0
-242 323 0
-243 324 0
-50 1 0
-51 1 0
-52 1 0
-53 1 0
-54 1 0
-55 1 0
-56 1 0
-57 1 0
-58 1 0
-59 1 0
-60 1 0
-61 1 0
-62 1 0
-63 1 0
-64 1 0
-65 1 0
-66 1 0
-67 1 0
-68 1 0
-69 1 0
-70 1 0
-71 1 0
-72 1 0
-73 1 0
-74 1 0
-75 1 0
-76 1 0
-77 1 0
-78 1 0
-79 1 0
-80 1 0
-81 1 0
-131 50 82 0
-132 51 82 0
-133 52 82 0
-134 53 82 0
-135 54 82 0
-136 55 82 0
-137 56 82 0
-138 57 82 0
-139 58 82 0
-140 59 82 0
-141 60 82 0
-142 61 82 0
-143 62 82 0
-144 63 82 0
-145 64 82 0
-146 65 82 0
-147 66 82 0
-148 67 82 0
-149 68 82 0
-150 69 82 0
-151 70 82 0
-152 71 82 0
-153 72 82 0
-154 73 82 0
-155 74 82 0
-156 75 82 0
-157 76 82 0
-158 77 82 0
-159 78 82 0
-160 79 82 0
-161 80 82 0
-162 81 82 0
-212 131 163 0
-213 132 163 0
-214 133 163 0
-215 134 163 0
-216 135 163 0
-217 136 163 0
-218 137 163 0
-219 138 163 0
-220 139 163 0
-221 140 163 0
-222 141 163 0
-223 142 163 0
-224 143 163 0
-225 144 163 0
-226 145 163 0
-227 146 163 0
-228 147 163 0
-229 148 163 0
-230 149 163 0
-231 150 163 0
-232 151 163 0
-233 152 163 0
-234 153 163 0
-235 154 163 0
-236 155 163 0
-237 156 163 0
-238 157 163 0
-239 158 163 0
-240 159 163 0
-241 160 163 0
-242 161 163 0
-243 162 163 0
-293 212 244 0
-294 213 244 0
-295 214 244 0
-296 215 244 0
-297 216 244 0
-298 217 244 0
-299 218 244 0
-300 219 244 0
-301 220 244 0
-302 221 244 0
-303 222 244 0
-304 223 244 0
-305 224 244 0
-306 225 244 0
-307 226 244 0
-308 227 244 0
-309 228 244 0
-310 229 244 0
-311 230 244 0
-312 231 244 0
-313 232 244 0
-314 233 244 0
-315 234 244 0
-316 235 244 0
-317 236 244 0
-318 237 244 0
-319 238 244 0
-320 239 244 0
-321 240 244 0
-322 241 244 0
-323 242 244 0
-324 243 244 0
325 326 327 328 329 330 331 332 333 334 335 336 337 338 339 340 341 342 343 344 345 346 347 348 349 350 351 352 353 354 355 356 0
-325 293 0
-325 301 0
-325 309 0
-326 293 0
-326 295 0
-326 297 0
-327 295 0
-327 303 0
-327 311 0
-328 295 0
-328 297 0
-328 299 0
-329 297 0
-329 305 0
-329 313 0
-330 297 0
-330 299 0
-330 293 0
-331 299 0
-331 307 0
-331 315 0
-332 299 0
-332 293 0
-332 295 0
-333 301 0
-333 309 0
-333 317 0
-334 301 0
-334 303 0
-334 305 0
-335 303 0
-335 311 0
-335 319 0
-336 303 0
-336 305 0
-336 307 0
-337 305 0
-337 313 0
-337 321 0
-338 305 0
-338 307 0
-338 301 0
-339 307 0
-339 315 0
-339 323 0
-340 307 0
-340 301 0
-340 303 0
-341 309 0
-341 317 0
-341 293 0
-342 309 0
-342 311 0
-342 313 0
-343 311 0
-343 319 0
-343 295 0
-344 311 0
-344 313 0
-344 315 0
-345 313 0
-345 321 0
-345 297 0
-346 313 0
-346 315 0
-346 309 0
-347 315 0
-347 323 0
-347 299 0
-348 315 0
-348 309 0
-348 311 0
-349 317 0
-349 293 0
-349 301 0
-350 317 0
-350 319 0
-350 321 0
-351 319 0
-351 295 0
-351 303 0
-352 319 0
-352 321 0
-352 323 0
-353 321 0
-353 297 0
-353 305 0
-354 321 0
-354 323 0
-354 317 0
-355 323 0
-355 299 0
-355 307 0
-356 323 0
-356 317 0
-356 319 0
-309 -301 -293 325 0
-297 -295 -293 326 0
-311 -303 -295 327 0
-299 -297 -295 328 0
-313 -305 -297 329 0
-299 -297 -293 330 0
-315 -307 -299 331 0
-299 -295 -293 332 0
-317 -309 -301 333 0
-305 -303 -301 334 0
-319 -311 -303 335 0
-307 -305 -303 336 0
-321 -313 -305 337 0
-307 -305 -301 338 0
-323 -315 -307 339 0
-307 -303 -301 340 0
-317 -309 -293 341 0
-313 -311 -309 342 0
-319 -311 -295 343 0
-315 -313 -311 344 0
-321 -313 -297 345 0
-315 -313 -309 346 0
-323 -315 -299 347 0
-315 -311 -309 348 0
-317 -301 -293 349 0
-321 -319 -317 350 0
-319 -303 -295 351 0
-323 -321 -319 352 0
-321 -305 -297 353 0
-323 -321 -317 354 0
-323 -307 -299 355 0
-323 -319 -317 356 0
-310 -302 -294 0
-298 -296 -294 0
-312 -304 -296 0
-300 -298 -296 0
-314 -306 -298 0
-300 -298 -294 0
-316 -308 -300 0
-300 -296 -294 0
-318 -310 -302 0
-306 -304 -302 0
-320 -312 -304 0
-308 -306 -304 0
-322 -314 -306 0
-308 -306 -302 0
-324 -316 -308 0
-308 -304 -302 0
-318 -310 -294 0
-314 -312 -310 0
-320 -312 -296 0
-316 -314 -312 0
-322 -314 -298 0
-316 -314 -310 0
-324 -316 -300 0
-316 -312 -310 0
-318 -302 -294 0
-322 -320 -318 0
-320 -304 -296 0
-324 -322 -320 0
-322 -306 -298 0
-324 -322 -318 0
-324 -308 -300 0
-324 -320 -318 0
